log/Reading instance from file data/g08.dat
Number of nodes: 401
Number of edges: 4400
initialize CPLEX ... done.
Calling CPLEX solve ...
Version identifier: 12.10.0.0 | 2019-11-26 | 843d4de
CPXPARAM_Threads                                 1
CPXPARAM_TimeLimit                               3600
CPXPARAM_WorkMem                                 8192
Presolve has eliminated 18001 rows and 17600 columns...
Tried aggregator 1 time.
Presolve has eliminated 18001 rows and 17600 columns...
MIP Presolve eliminated 18001 rows and 17600 columns.
MIP Presolve modified 170000 coefficients.
Reduced MIP has 3513604 rows, 3520400 columns, and 17106400 nonzeros.
Reduced MIP has 3520400 binaries, 0 generals, 0 SOSs, and 0 indicators.
Presolve time = 332.76 sec. (49332.38 ticks)
Probing time = 7.77 sec. (886.04 ticks)
Tried aggregator 1 time.
Presolve has eliminated 0 rows and 0 columns...
Detecting symmetries...
Reduced MIP has 3513604 rows, 3520400 columns, and 17106400 nonzeros.
Reduced MIP has 3520400 binaries, 0 generals, 0 SOSs, and 0 indicators.
Presolve time = 354.69 sec. (47292.32 ticks)
Probing time = 6.12 sec. (813.50 ticks)
Clique table members: 11985651.
MIP emphasis: balance optimality and feasibility.
MIP search method: dynamic search.
Parallel mode: none, using 1 thread.
Root relaxation solution time = 2541.61 sec. (824988.40 ticks)

        Nodes                                         Cuts/
   Node  Left     Objective  IInf  Best Integer    Best Bound    ItCnt     Gap

      0     0  -1.00000e+37     0                      0.0000   575275         

Root node processing (before b&c):
  Real time             = 3600.96 sec. (983381.77 ticks)
Sequential b&c:
  Real time             =    0.00 sec. (0.00 ticks)
                          ------------
Total (root+branch&cut) = 3600.96 sec. (983381.77 ticks)
CPLEX finished.

CPLEX status: Unknown
Branch-and-Bound nodes: 0
Objective value: 